p cnf 618 2265
1 2 3 4 0
-1 -2 0
-1 -3 0
-1 -4 0
-2 -3 0
-2 -4 0
-3 -4 0
5 -6 -7 0
6 -5 -7 0
-5 -6 7 0
6 5 7 0
-1 -7 0
6 -5 -8 0
5 -6 -8 0
8 -6 -5 0
8 6 5 0
-2 8 0
-3 8 0
-4 8 0
9 -10 -11 0
10 -9 -11 0
-9 -10 11 0
10 9 11 0
-1 -11 0
10 -12 -13 0
12 -10 -13 0
13 -10 -12 0
13 10 12 0
-2 13 0
-9 14 0
-12 14 0
-15 14 0
-16 14 0
-17 14 0
-18 14 0
-19 14 0
-20 14 0
-21 14 0
22 0
10 -14 -23 0
-10 14 -23 0
-10 -14 23 0
10 14 23 0
-3 23 0
9 24 0
12 24 0
15 24 0
16 24 0
17 24 0
18 24 0
19 24 0
20 24 0
21 24 0
-25 0
-10 24 -26 0
10 -24 -26 0
26 -24 -10 0
10 24 26 0
-4 -26 0
12 -27 -28 0
27 -12 -28 0
-12 -27 28 0
12 27 28 0
-1 -28 0
27 -15 -29 0
15 -27 -29 0
29 -27 -15 0
29 27 15 0
-2 29 0
-12 30 0
-15 30 0
-16 30 0
-17 30 0
-18 30 0
-19 30 0
-20 30 0
-21 30 0
31 0
27 -30 -32 0
-27 30 -32 0
-27 -30 32 0
27 30 32 0
-3 32 0
12 33 0
15 33 0
16 33 0
17 33 0
18 33 0
19 33 0
20 33 0
21 33 0
-34 0
-27 33 -35 0
27 -33 -35 0
35 -33 -27 0
27 33 35 0
-4 -35 0
15 -36 -37 0
36 -15 -37 0
-15 -36 37 0
15 36 37 0
-1 -37 0
36 -16 -38 0
16 -36 -38 0
38 -36 -16 0
38 36 16 0
-2 38 0
-15 39 0
-16 39 0
-17 39 0
-18 39 0
-19 39 0
-20 39 0
-21 39 0
40 0
36 -39 -41 0
-36 39 -41 0
-36 -39 41 0
36 39 41 0
-3 41 0
15 42 0
16 42 0
17 42 0
18 42 0
19 42 0
20 42 0
21 42 0
-43 0
-36 42 -44 0
36 -42 -44 0
44 -42 -36 0
36 42 44 0
-4 -44 0
16 -45 -46 0
45 -16 -46 0
-16 -45 46 0
16 45 46 0
-1 -46 0
45 -17 -47 0
17 -45 -47 0
47 -45 -17 0
47 45 17 0
-2 47 0
-16 48 0
-17 48 0
-18 48 0
-19 48 0
-20 48 0
-21 48 0
16 17 18 19 20 21 -48 0
45 -48 -49 0
-45 48 -49 0
-45 -48 49 0
45 48 49 0
-3 49 0
16 50 0
17 50 0
18 50 0
19 50 0
20 50 0
21 50 0
-51 0
-45 50 -52 0
45 -50 -52 0
52 -50 -45 0
45 50 52 0
-4 -52 0
17 -53 -54 0
53 -17 -54 0
-17 -53 54 0
17 53 54 0
-1 -54 0
53 -18 -55 0
18 -53 -55 0
55 -53 -18 0
55 53 18 0
-2 55 0
-17 56 0
-18 56 0
-19 56 0
-20 56 0
-21 56 0
17 18 19 20 21 -56 0
53 -56 -57 0
-53 56 -57 0
-53 -56 57 0
53 56 57 0
-3 57 0
17 58 0
18 58 0
19 58 0
20 58 0
21 58 0
-59 0
-53 58 -60 0
53 -58 -60 0
60 -58 -53 0
53 58 60 0
-4 -60 0
18 -61 -62 0
61 -18 -62 0
-18 -61 62 0
18 61 62 0
-1 -62 0
61 -19 -63 0
19 -61 -63 0
63 -61 -19 0
63 61 19 0
-2 63 0
61 -56 -64 0
56 -61 -64 0
-56 -61 64 0
61 56 64 0
-3 64 0
58 -61 -65 0
61 -58 -65 0
65 -58 -61 0
61 58 65 0
-4 -65 0
19 -66 -67 0
66 -19 -67 0
-19 -66 67 0
19 66 67 0
-1 -67 0
66 -20 -68 0
20 -66 -68 0
68 -66 -20 0
68 66 20 0
-2 68 0
66 -56 -69 0
56 -66 -69 0
-56 -66 69 0
66 56 69 0
-3 69 0
58 -66 -70 0
66 -58 -70 0
70 -58 -66 0
66 58 70 0
-4 -70 0
20 -71 -72 0
71 -20 -72 0
-20 -71 72 0
20 71 72 0
-1 -72 0
71 -21 -73 0
21 -71 -73 0
73 -71 -21 0
73 71 21 0
-2 73 0
71 -56 -74 0
56 -71 -74 0
-56 -71 74 0
71 56 74 0
-3 74 0
58 -71 -75 0
71 -58 -75 0
75 -58 -71 0
71 58 75 0
-4 -75 0
21 -76 -77 0
76 -21 -77 0
-21 -76 77 0
21 76 77 0
-1 -77 0
-17 76 -78 0
17 -76 -78 0
78 -76 -17 0
78 76 17 0
-2 78 0
76 -56 -79 0
56 -76 -79 0
-56 -76 79 0
76 56 79 0
-3 79 0
58 -76 -80 0
76 -58 -80 0
80 -58 -76 0
76 58 80 0
-4 -80 0
81 -82 -83 0
82 -81 -83 0
-81 -82 83 0
82 81 83 0
-1 -83 0
82 -84 -85 0
84 -82 -85 0
85 -82 -84 0
85 82 84 0
-2 85 0
-81 86 0
-84 86 0
-87 86 0
-88 86 0
-89 86 0
-90 86 0
-91 86 0
-92 86 0
-93 86 0
-94 86 0
95 0
82 -86 -96 0
-82 86 -96 0
-82 -86 96 0
82 86 96 0
-3 96 0
81 97 0
84 97 0
87 97 0
88 97 0
89 97 0
90 97 0
91 97 0
92 97 0
93 97 0
94 97 0
-98 0
-82 97 -99 0
82 -97 -99 0
99 -97 -82 0
82 97 99 0
-4 -99 0
84 -100 -101 0
100 -84 -101 0
-84 -100 101 0
84 100 101 0
-1 -101 0
100 -87 -102 0
87 -100 -102 0
102 -100 -87 0
102 100 87 0
-2 102 0
-84 103 0
-87 103 0
-88 103 0
-89 103 0
-90 103 0
-91 103 0
-92 103 0
-93 103 0
-94 103 0
104 0
100 -103 -105 0
-100 103 -105 0
-100 -103 105 0
100 103 105 0
-3 105 0
84 106 0
87 106 0
88 106 0
89 106 0
90 106 0
91 106 0
92 106 0
93 106 0
94 106 0
-107 0
-100 106 -108 0
100 -106 -108 0
108 -106 -100 0
100 106 108 0
-4 -108 0
87 -109 -110 0
109 -87 -110 0
-87 -109 110 0
87 109 110 0
-1 -110 0
109 -88 -111 0
88 -109 -111 0
111 -109 -88 0
111 109 88 0
-2 111 0
-87 112 0
-88 112 0
-89 112 0
-90 112 0
-91 112 0
-92 112 0
-93 112 0
-94 112 0
113 0
109 -112 -114 0
-109 112 -114 0
-109 -112 114 0
109 112 114 0
-3 114 0
87 115 0
88 115 0
89 115 0
90 115 0
91 115 0
92 115 0
93 115 0
94 115 0
-116 0
-109 115 -117 0
109 -115 -117 0
117 -115 -109 0
109 115 117 0
-4 -117 0
88 -118 -119 0
118 -88 -119 0
-88 -118 119 0
88 118 119 0
-1 -119 0
118 -89 -120 0
89 -118 -120 0
120 -118 -89 0
120 118 89 0
-2 120 0
-88 121 0
-89 121 0
-90 121 0
-91 121 0
-92 121 0
-93 121 0
-94 121 0
122 0
118 -121 -123 0
-118 121 -123 0
-118 -121 123 0
118 121 123 0
-3 123 0
88 124 0
89 124 0
90 124 0
91 124 0
92 124 0
93 124 0
94 124 0
-125 0
-118 124 -126 0
118 -124 -126 0
126 -124 -118 0
118 124 126 0
-4 -126 0
89 -127 -128 0
127 -89 -128 0
-89 -127 128 0
89 127 128 0
-1 -128 0
127 -90 -129 0
90 -127 -129 0
129 -127 -90 0
129 127 90 0
-2 129 0
-89 130 0
-90 130 0
-91 130 0
-92 130 0
-93 130 0
-94 130 0
131 0
127 -130 -132 0
-127 130 -132 0
-127 -130 132 0
127 130 132 0
-3 132 0
89 133 0
90 133 0
91 133 0
92 133 0
93 133 0
94 133 0
-134 0
-127 133 -135 0
127 -133 -135 0
135 -133 -127 0
127 133 135 0
-4 -135 0
90 -136 -137 0
136 -90 -137 0
-90 -136 137 0
90 136 137 0
-1 -137 0
136 -91 -138 0
91 -136 -138 0
138 -136 -91 0
138 136 91 0
-2 138 0
-90 139 0
-91 139 0
-92 139 0
-93 139 0
-94 139 0
90 91 92 93 94 -139 0
136 -139 -140 0
-136 139 -140 0
-136 -139 140 0
136 139 140 0
-3 140 0
90 141 0
91 141 0
92 141 0
93 141 0
94 141 0
-142 0
-136 141 -143 0
136 -141 -143 0
143 -141 -136 0
136 141 143 0
-4 -143 0
91 -144 -145 0
144 -91 -145 0
-91 -144 145 0
91 144 145 0
-1 -145 0
144 -92 -146 0
92 -144 -146 0
146 -144 -92 0
146 144 92 0
-2 146 0
-91 147 0
-92 147 0
-93 147 0
-94 147 0
91 92 93 94 -147 0
144 -147 -148 0
-144 147 -148 0
-144 -147 148 0
144 147 148 0
-3 148 0
91 149 0
92 149 0
93 149 0
94 149 0
-150 0
-144 149 -151 0
144 -149 -151 0
151 -149 -144 0
144 149 151 0
-4 -151 0
92 -152 -153 0
152 -92 -153 0
-92 -152 153 0
92 152 153 0
-1 -153 0
152 -93 -154 0
93 -152 -154 0
154 -152 -93 0
154 152 93 0
-2 154 0
152 -147 -155 0
147 -152 -155 0
-147 -152 155 0
152 147 155 0
-3 155 0
149 -152 -156 0
152 -149 -156 0
156 -149 -152 0
152 149 156 0
-4 -156 0
93 -157 -158 0
157 -93 -158 0
-93 -157 158 0
93 157 158 0
-1 -158 0
157 -94 -159 0
94 -157 -159 0
159 -157 -94 0
159 157 94 0
-2 159 0
157 -147 -160 0
147 -157 -160 0
-147 -157 160 0
157 147 160 0
-3 160 0
149 -157 -161 0
157 -149 -161 0
161 -149 -157 0
157 149 161 0
-4 -161 0
94 -162 -163 0
162 -94 -163 0
-94 -162 163 0
94 162 163 0
-1 -163 0
-91 162 -164 0
91 -162 -164 0
164 -162 -91 0
164 162 91 0
-2 164 0
162 -147 -165 0
147 -162 -165 0
-147 -162 165 0
162 147 165 0
-3 165 0
149 -162 -166 0
162 -149 -166 0
166 -149 -162 0
162 149 166 0
-4 -166 0
167 -168 -169 0
168 -167 -169 0
-167 -168 169 0
168 167 169 0
-1 -169 0
168 -170 -171 0
170 -168 -171 0
171 -168 -170 0
171 168 170 0
-2 171 0
-167 172 0
-170 172 0
-173 172 0
-174 172 0
-175 172 0
-176 172 0
-177 172 0
-178 172 0
-179 172 0
-180 172 0
-181 172 0
182 0
168 -172 -183 0
-168 172 -183 0
-168 -172 183 0
168 172 183 0
-3 183 0
167 184 0
170 184 0
173 184 0
174 184 0
175 184 0
176 184 0
177 184 0
178 184 0
179 184 0
180 184 0
181 184 0
-185 0
-168 184 -186 0
168 -184 -186 0
186 -184 -168 0
168 184 186 0
-4 -186 0
170 -187 -188 0
187 -170 -188 0
-170 -187 188 0
170 187 188 0
-1 -188 0
187 -173 -189 0
173 -187 -189 0
189 -187 -173 0
189 187 173 0
-2 189 0
-170 190 0
-173 190 0
-174 190 0
-175 190 0
-176 190 0
-177 190 0
-178 190 0
-179 190 0
-180 190 0
-181 190 0
191 0
187 -190 -192 0
-187 190 -192 0
-187 -190 192 0
187 190 192 0
-3 192 0
170 193 0
173 193 0
174 193 0
175 193 0
176 193 0
177 193 0
178 193 0
179 193 0
180 193 0
181 193 0
-194 0
-187 193 -195 0
187 -193 -195 0
195 -193 -187 0
187 193 195 0
-4 -195 0
173 -196 -197 0
196 -173 -197 0
-173 -196 197 0
173 196 197 0
-1 -197 0
196 -174 -198 0
174 -196 -198 0
198 -196 -174 0
198 196 174 0
-2 198 0
-173 199 0
-174 199 0
-175 199 0
-176 199 0
-177 199 0
-178 199 0
-179 199 0
-180 199 0
-181 199 0
200 0
196 -199 -201 0
-196 199 -201 0
-196 -199 201 0
196 199 201 0
-3 201 0
173 202 0
174 202 0
175 202 0
176 202 0
177 202 0
178 202 0
179 202 0
180 202 0
181 202 0
-203 0
-196 202 -204 0
196 -202 -204 0
204 -202 -196 0
196 202 204 0
-4 -204 0
174 -205 -206 0
205 -174 -206 0
-174 -205 206 0
174 205 206 0
-1 -206 0
205 -175 -207 0
175 -205 -207 0
207 -205 -175 0
207 205 175 0
-2 207 0
-174 208 0
-175 208 0
-176 208 0
-177 208 0
-178 208 0
-179 208 0
-180 208 0
-181 208 0
209 0
205 -208 -210 0
-205 208 -210 0
-205 -208 210 0
205 208 210 0
-3 210 0
174 211 0
175 211 0
176 211 0
177 211 0
178 211 0
179 211 0
180 211 0
181 211 0
-212 0
-205 211 -213 0
205 -211 -213 0
213 -211 -205 0
205 211 213 0
-4 -213 0
175 -214 -215 0
214 -175 -215 0
-175 -214 215 0
175 214 215 0
-1 -215 0
214 -176 -216 0
176 -214 -216 0
216 -214 -176 0
216 214 176 0
-2 216 0
-175 217 0
-176 217 0
-177 217 0
-178 217 0
-179 217 0
-180 217 0
-181 217 0
218 0
214 -217 -219 0
-214 217 -219 0
-214 -217 219 0
214 217 219 0
-3 219 0
175 220 0
176 220 0
177 220 0
178 220 0
179 220 0
180 220 0
181 220 0
-221 0
-214 220 -222 0
214 -220 -222 0
222 -220 -214 0
214 220 222 0
-4 -222 0
176 -223 -224 0
223 -176 -224 0
-176 -223 224 0
176 223 224 0
-1 -224 0
223 -177 -225 0
177 -223 -225 0
225 -223 -177 0
225 223 177 0
-2 225 0
-176 226 0
-177 226 0
-178 226 0
-179 226 0
-180 226 0
-181 226 0
227 0
223 -226 -228 0
-223 226 -228 0
-223 -226 228 0
223 226 228 0
-3 228 0
176 229 0
177 229 0
178 229 0
179 229 0
180 229 0
181 229 0
-230 0
-223 229 -231 0
223 -229 -231 0
231 -229 -223 0
223 229 231 0
-4 -231 0
177 -232 -233 0
232 -177 -233 0
-177 -232 233 0
177 232 233 0
-1 -233 0
232 -178 -234 0
178 -232 -234 0
234 -232 -178 0
234 232 178 0
-2 234 0
232 -226 -235 0
226 -232 -235 0
-226 -232 235 0
232 226 235 0
-3 235 0
229 -232 -236 0
232 -229 -236 0
236 -229 -232 0
232 229 236 0
-4 -236 0
178 -237 -238 0
237 -178 -238 0
-178 -237 238 0
178 237 238 0
-1 -238 0
237 -179 -239 0
179 -237 -239 0
239 -237 -179 0
239 237 179 0
-2 239 0
237 -226 -240 0
226 -237 -240 0
-226 -237 240 0
237 226 240 0
-3 240 0
229 -237 -241 0
237 -229 -241 0
241 -229 -237 0
237 229 241 0
-4 -241 0
179 -242 -243 0
242 -179 -243 0
-179 -242 243 0
179 242 243 0
-1 -243 0
242 -180 -244 0
180 -242 -244 0
244 -242 -180 0
244 242 180 0
-2 244 0
242 -226 -245 0
226 -242 -245 0
-226 -242 245 0
242 226 245 0
-3 245 0
229 -242 -246 0
242 -229 -246 0
246 -229 -242 0
242 229 246 0
-4 -246 0
180 -247 -248 0
247 -180 -248 0
-180 -247 248 0
180 247 248 0
-1 -248 0
247 -181 -249 0
181 -247 -249 0
249 -247 -181 0
249 247 181 0
-2 249 0
247 -226 -250 0
226 -247 -250 0
-226 -247 250 0
247 226 250 0
-3 250 0
229 -247 -251 0
247 -229 -251 0
251 -229 -247 0
247 229 251 0
-4 -251 0
181 -252 -253 0
252 -181 -253 0
-181 -252 253 0
181 252 253 0
-1 -253 0
-176 252 -254 0
176 -252 -254 0
254 -252 -176 0
254 252 176 0
-2 254 0
252 -226 -255 0
226 -252 -255 0
-226 -252 255 0
252 226 255 0
-3 255 0
229 -252 -256 0
252 -229 -256 0
256 -229 -252 0
252 229 256 0
-4 -256 0
257 -258 -259 0
258 -257 -259 0
-257 -258 259 0
258 257 259 0
-1 -259 0
258 -260 -261 0
260 -258 -261 0
261 -258 -260 0
261 258 260 0
-2 261 0
-15 262 0
-16 262 0
-17 262 0
-18 262 0
-19 262 0
-20 262 0
-21 262 0
-257 262 0
-260 262 0
263 0
258 -262 -264 0
-258 262 -264 0
-258 -262 264 0
258 262 264 0
-3 264 0
15 265 0
16 265 0
17 265 0
18 265 0
19 265 0
20 265 0
21 265 0
257 265 0
260 265 0
-266 0
-258 265 -267 0
258 -265 -267 0
267 -265 -258 0
258 265 267 0
-4 -267 0
260 -268 -269 0
268 -260 -269 0
-260 -268 269 0
260 268 269 0
-1 -269 0
-15 268 -270 0
15 -268 -270 0
270 -268 -15 0
270 268 15 0
-2 270 0
-15 271 0
-16 271 0
-17 271 0
-18 271 0
-19 271 0
-20 271 0
-21 271 0
-260 271 0
272 0
268 -271 -273 0
-268 271 -273 0
-268 -271 273 0
268 271 273 0
-3 273 0
15 274 0
16 274 0
17 274 0
18 274 0
19 274 0
20 274 0
21 274 0
260 274 0
-275 0
-268 274 -276 0
268 -274 -276 0
276 -274 -268 0
268 274 276 0
-4 -276 0
277 -278 -279 0
278 -277 -279 0
-277 -278 279 0
278 277 279 0
-1 -279 0
278 -280 -281 0
280 -278 -281 0
281 -278 -280 0
281 278 280 0
-2 281 0
-277 282 0
-280 282 0
-283 282 0
-284 282 0
-285 282 0
-286 282 0
287 0
278 -282 -288 0
-278 282 -288 0
-278 -282 288 0
278 282 288 0
-3 288 0
277 289 0
280 289 0
283 289 0
284 289 0
285 289 0
286 289 0
-290 0
-278 289 -291 0
278 -289 -291 0
291 -289 -278 0
278 289 291 0
-4 -291 0
280 -292 -293 0
292 -280 -293 0
-280 -292 293 0
280 292 293 0
-1 -293 0
292 -283 -294 0
283 -292 -294 0
294 -292 -283 0
294 292 283 0
-2 294 0
-280 295 0
-283 295 0
-284 295 0
-285 295 0
-286 295 0
280 283 284 285 286 -295 0
292 -295 -296 0
-292 295 -296 0
-292 -295 296 0
292 295 296 0
-3 296 0
280 297 0
283 297 0
284 297 0
285 297 0
286 297 0
-298 0
-292 297 -299 0
292 -297 -299 0
299 -297 -292 0
292 297 299 0
-4 -299 0
283 -300 -301 0
300 -283 -301 0
-283 -300 301 0
283 300 301 0
-1 -301 0
300 -284 -302 0
284 -300 -302 0
302 -300 -284 0
302 300 284 0
-2 302 0
300 -295 -303 0
295 -300 -303 0
-295 -300 303 0
300 295 303 0
-3 303 0
297 -300 -304 0
300 -297 -304 0
304 -297 -300 0
300 297 304 0
-4 -304 0
284 -305 -306 0
305 -284 -306 0
-284 -305 306 0
284 305 306 0
-1 -306 0
305 -285 -307 0
285 -305 -307 0
307 -305 -285 0
307 305 285 0
-2 307 0
305 -295 -308 0
295 -305 -308 0
-295 -305 308 0
305 295 308 0
-3 308 0
297 -305 -309 0
305 -297 -309 0
309 -297 -305 0
305 297 309 0
-4 -309 0
285 -310 -311 0
310 -285 -311 0
-285 -310 311 0
285 310 311 0
-1 -311 0
310 -286 -312 0
286 -310 -312 0
312 -310 -286 0
312 310 286 0
-2 312 0
310 -295 -313 0
295 -310 -313 0
-295 -310 313 0
310 295 313 0
-3 313 0
297 -310 -314 0
310 -297 -314 0
314 -297 -310 0
310 297 314 0
-4 -314 0
286 -315 -316 0
315 -286 -316 0
-286 -315 316 0
286 315 316 0
-1 -316 0
-280 315 -317 0
280 -315 -317 0
317 -315 -280 0
317 315 280 0
-2 317 0
315 -295 -318 0
295 -315 -318 0
-295 -315 318 0
315 295 318 0
-3 318 0
297 -315 -319 0
315 -297 -319 0
319 -297 -315 0
315 297 319 0
-4 -319 0
320 -321 -322 0
321 -320 -322 0
-320 -321 322 0
321 320 322 0
-1 -322 0
321 -323 -324 0
323 -321 -324 0
324 -321 -323 0
324 321 323 0
-2 324 0
-320 325 0
-323 325 0
-326 325 0
-327 325 0
-328 325 0
-329 325 0
-330 325 0
-331 325 0
-332 325 0
-333 325 0
-334 325 0
-335 325 0
336 0
321 -325 -337 0
-321 325 -337 0
-321 -325 337 0
321 325 337 0
-3 337 0
320 338 0
323 338 0
326 338 0
327 338 0
328 338 0
329 338 0
330 338 0
331 338 0
332 338 0
333 338 0
334 338 0
335 338 0
-339 0
-321 338 -340 0
321 -338 -340 0
340 -338 -321 0
321 338 340 0
-4 -340 0
323 -341 -342 0
341 -323 -342 0
-323 -341 342 0
323 341 342 0
-1 -342 0
341 -326 -343 0
326 -341 -343 0
343 -341 -326 0
343 341 326 0
-2 343 0
-323 344 0
-326 344 0
-327 344 0
-328 344 0
-329 344 0
-330 344 0
-331 344 0
-332 344 0
-333 344 0
-334 344 0
-335 344 0
345 0
341 -344 -346 0
-341 344 -346 0
-341 -344 346 0
341 344 346 0
-3 346 0
323 347 0
326 347 0
327 347 0
328 347 0
329 347 0
330 347 0
331 347 0
332 347 0
333 347 0
334 347 0
335 347 0
-348 0
-341 347 -349 0
341 -347 -349 0
349 -347 -341 0
341 347 349 0
-4 -349 0
326 -350 -351 0
350 -326 -351 0
-326 -350 351 0
326 350 351 0
-1 -351 0
350 -327 -352 0
327 -350 -352 0
352 -350 -327 0
352 350 327 0
-2 352 0
-326 353 0
-327 353 0
-328 353 0
-329 353 0
-330 353 0
-331 353 0
-332 353 0
-333 353 0
-334 353 0
-335 353 0
354 0
350 -353 -355 0
-350 353 -355 0
-350 -353 355 0
350 353 355 0
-3 355 0
326 356 0
327 356 0
328 356 0
329 356 0
330 356 0
331 356 0
332 356 0
333 356 0
334 356 0
335 356 0
-357 0
-350 356 -358 0
350 -356 -358 0
358 -356 -350 0
350 356 358 0
-4 -358 0
327 -359 -360 0
359 -327 -360 0
-327 -359 360 0
327 359 360 0
-1 -360 0
359 -328 -361 0
328 -359 -361 0
361 -359 -328 0
361 359 328 0
-2 361 0
-327 362 0
-328 362 0
-329 362 0
-330 362 0
-331 362 0
-332 362 0
-333 362 0
-334 362 0
-335 362 0
363 0
359 -362 -364 0
-359 362 -364 0
-359 -362 364 0
359 362 364 0
-3 364 0
327 365 0
328 365 0
329 365 0
330 365 0
331 365 0
332 365 0
333 365 0
334 365 0
335 365 0
-366 0
-359 365 -367 0
359 -365 -367 0
367 -365 -359 0
359 365 367 0
-4 -367 0
328 -368 -369 0
368 -328 -369 0
-328 -368 369 0
328 368 369 0
-1 -369 0
368 -329 -370 0
329 -368 -370 0
370 -368 -329 0
370 368 329 0
-2 370 0
-328 371 0
-329 371 0
-330 371 0
-331 371 0
-332 371 0
-333 371 0
-334 371 0
-335 371 0
372 0
368 -371 -373 0
-368 371 -373 0
-368 -371 373 0
368 371 373 0
-3 373 0
328 374 0
329 374 0
330 374 0
331 374 0
332 374 0
333 374 0
334 374 0
335 374 0
-375 0
-368 374 -376 0
368 -374 -376 0
376 -374 -368 0
368 374 376 0
-4 -376 0
329 -377 -378 0
377 -329 -378 0
-329 -377 378 0
329 377 378 0
-1 -378 0
377 -330 -379 0
330 -377 -379 0
379 -377 -330 0
379 377 330 0
-2 379 0
-329 380 0
-330 380 0
-331 380 0
-332 380 0
-333 380 0
-334 380 0
-335 380 0
381 0
377 -380 -382 0
-377 380 -382 0
-377 -380 382 0
377 380 382 0
-3 382 0
329 383 0
330 383 0
331 383 0
332 383 0
333 383 0
334 383 0
335 383 0
-384 0
-377 383 -385 0
377 -383 -385 0
385 -383 -377 0
377 383 385 0
-4 -385 0
330 -386 -387 0
386 -330 -387 0
-330 -386 387 0
330 386 387 0
-1 -387 0
386 -331 -388 0
331 -386 -388 0
388 -386 -331 0
388 386 331 0
-2 388 0
-330 389 0
-331 389 0
-332 389 0
-333 389 0
-334 389 0
-335 389 0
390 0
386 -389 -391 0
-386 389 -391 0
-386 -389 391 0
386 389 391 0
-3 391 0
330 392 0
331 392 0
332 392 0
333 392 0
334 392 0
335 392 0
-393 0
-386 392 -394 0
386 -392 -394 0
394 -392 -386 0
386 392 394 0
-4 -394 0
331 -395 -396 0
395 -331 -396 0
-331 -395 396 0
331 395 396 0
-1 -396 0
395 -332 -397 0
332 -395 -397 0
397 -395 -332 0
397 395 332 0
-2 397 0
395 -389 -398 0
389 -395 -398 0
-389 -395 398 0
395 389 398 0
-3 398 0
392 -395 -399 0
395 -392 -399 0
399 -392 -395 0
395 392 399 0
-4 -399 0
332 -400 -401 0
400 -332 -401 0
-332 -400 401 0
332 400 401 0
-1 -401 0
400 -333 -402 0
333 -400 -402 0
402 -400 -333 0
402 400 333 0
-2 402 0
400 -389 -403 0
389 -400 -403 0
-389 -400 403 0
400 389 403 0
-3 403 0
392 -400 -404 0
400 -392 -404 0
404 -392 -400 0
400 392 404 0
-4 -404 0
333 -405 -406 0
405 -333 -406 0
-333 -405 406 0
333 405 406 0
-1 -406 0
405 -334 -407 0
334 -405 -407 0
407 -405 -334 0
407 405 334 0
-2 407 0
405 -389 -408 0
389 -405 -408 0
-389 -405 408 0
405 389 408 0
-3 408 0
392 -405 -409 0
405 -392 -409 0
409 -392 -405 0
405 392 409 0
-4 -409 0
334 -410 -411 0
410 -334 -411 0
-334 -410 411 0
334 410 411 0
-1 -411 0
410 -335 -412 0
335 -410 -412 0
412 -410 -335 0
412 410 335 0
-2 412 0
410 -389 -413 0
389 -410 -413 0
-389 -410 413 0
410 389 413 0
-3 413 0
392 -410 -414 0
410 -392 -414 0
414 -392 -410 0
410 392 414 0
-4 -414 0
335 -415 -416 0
415 -335 -416 0
-335 -415 416 0
335 415 416 0
-1 -416 0
-330 415 -417 0
330 -415 -417 0
417 -415 -330 0
417 415 330 0
-2 417 0
415 -389 -418 0
389 -415 -418 0
-389 -415 418 0
415 389 418 0
-3 418 0
392 -415 -419 0
415 -392 -419 0
419 -392 -415 0
415 392 419 0
-4 -419 0
420 -421 -422 0
421 -420 -422 0
-420 -421 422 0
421 420 422 0
-1 -422 0
421 -423 -424 0
423 -421 -424 0
424 -421 -423 0
424 421 423 0
-2 424 0
-420 425 0
-423 425 0
-426 425 0
-427 425 0
-428 425 0
-429 425 0
-430 425 0
431 0
421 -425 -432 0
-421 425 -432 0
-421 -425 432 0
421 425 432 0
-3 432 0
420 433 0
423 433 0
426 433 0
427 433 0
428 433 0
429 433 0
430 433 0
-434 0
-421 433 -435 0
421 -433 -435 0
435 -433 -421 0
421 433 435 0
-4 -435 0
423 -436 -437 0
436 -423 -437 0
-423 -436 437 0
423 436 437 0
-1 -437 0
436 -426 -438 0
426 -436 -438 0
438 -436 -426 0
438 436 426 0
-2 438 0
-423 439 0
-426 439 0
-427 439 0
-428 439 0
-429 439 0
-430 439 0
440 0
436 -439 -441 0
-436 439 -441 0
-436 -439 441 0
436 439 441 0
-3 441 0
423 442 0
426 442 0
427 442 0
428 442 0
429 442 0
430 442 0
-443 0
-436 442 -444 0
436 -442 -444 0
444 -442 -436 0
436 442 444 0
-4 -444 0
426 -445 -446 0
445 -426 -446 0
-426 -445 446 0
426 445 446 0
-1 -446 0
445 -427 -447 0
427 -445 -447 0
447 -445 -427 0
447 445 427 0
-2 447 0
-426 448 0
-427 448 0
-428 448 0
-429 448 0
-430 448 0
426 427 428 429 430 -448 0
445 -448 -449 0
-445 448 -449 0
-445 -448 449 0
445 448 449 0
-3 449 0
426 450 0
427 450 0
428 450 0
429 450 0
430 450 0
-451 0
-445 450 -452 0
445 -450 -452 0
452 -450 -445 0
445 450 452 0
-4 -452 0
427 -453 -454 0
453 -427 -454 0
-427 -453 454 0
427 453 454 0
-1 -454 0
453 -428 -455 0
428 -453 -455 0
455 -453 -428 0
455 453 428 0
-2 455 0
-427 456 0
-428 456 0
-429 456 0
-430 456 0
427 428 429 430 -456 0
453 -456 -457 0
-453 456 -457 0
-453 -456 457 0
453 456 457 0
-3 457 0
427 458 0
428 458 0
429 458 0
430 458 0
-459 0
-453 458 -460 0
453 -458 -460 0
460 -458 -453 0
453 458 460 0
-4 -460 0
428 -461 -462 0
461 -428 -462 0
-428 -461 462 0
428 461 462 0
-1 -462 0
461 -429 -463 0
429 -461 -463 0
463 -461 -429 0
463 461 429 0
-2 463 0
-428 464 0
-429 464 0
-430 464 0
428 429 430 -464 0
461 -464 -465 0
-461 464 -465 0
-461 -464 465 0
461 464 465 0
-3 465 0
428 466 0
429 466 0
430 466 0
-428 -429 -430 -466 0
-461 466 -467 0
461 -466 -467 0
467 -466 -461 0
461 466 467 0
-4 -467 0
429 -468 -469 0
468 -429 -469 0
-429 -468 469 0
429 468 469 0
-1 -469 0
468 -430 -470 0
430 -468 -470 0
470 -468 -430 0
470 468 430 0
-2 470 0
-429 471 0
-430 471 0
429 430 -471 0
468 -471 -472 0
-468 471 -472 0
-468 -471 472 0
468 471 472 0
-3 472 0
429 473 0
430 473 0
-429 -430 -473 0
-468 473 -474 0
468 -473 -474 0
474 -473 -468 0
468 473 474 0
-4 -474 0
430 -475 -476 0
475 -430 -476 0
-430 -475 476 0
430 475 476 0
-1 -476 0
-429 475 -477 0
429 -475 -477 0
477 -475 -429 0
477 475 429 0
-2 477 0
475 -471 -478 0
471 -475 -478 0
-471 -475 478 0
475 471 478 0
-3 478 0
473 -475 -479 0
475 -473 -479 0
479 -473 -475 0
475 473 479 0
-4 -479 0
480 -481 -482 0
481 -480 -482 0
-480 -481 482 0
481 480 482 0
-1 -482 0
481 -483 -484 0
483 -481 -484 0
484 -481 -483 0
484 481 483 0
-2 484 0
-480 485 0
-483 485 0
-486 485 0
-487 485 0
-488 485 0
-489 485 0
-490 485 0
-491 485 0
-492 485 0
-493 485 0
-494 485 0
-495 485 0
496 0
481 -485 -497 0
-481 485 -497 0
-481 -485 497 0
481 485 497 0
-3 497 0
480 498 0
483 498 0
486 498 0
487 498 0
488 498 0
489 498 0
490 498 0
491 498 0
492 498 0
493 498 0
494 498 0
495 498 0
-499 0
-481 498 -500 0
481 -498 -500 0
500 -498 -481 0
481 498 500 0
-4 -500 0
483 -501 -502 0
501 -483 -502 0
-483 -501 502 0
483 501 502 0
-1 -502 0
501 -486 -503 0
486 -501 -503 0
503 -501 -486 0
503 501 486 0
-2 503 0
-483 504 0
-486 504 0
-487 504 0
-488 504 0
-489 504 0
-490 504 0
-491 504 0
-492 504 0
-493 504 0
-494 504 0
-495 504 0
505 0
501 -504 -506 0
-501 504 -506 0
-501 -504 506 0
501 504 506 0
-3 506 0
483 507 0
486 507 0
487 507 0
488 507 0
489 507 0
490 507 0
491 507 0
492 507 0
493 507 0
494 507 0
495 507 0
-508 0
-501 507 -509 0
501 -507 -509 0
509 -507 -501 0
501 507 509 0
-4 -509 0
486 -510 -511 0
510 -486 -511 0
-486 -510 511 0
486 510 511 0
-1 -511 0
510 -487 -512 0
487 -510 -512 0
512 -510 -487 0
512 510 487 0
-2 512 0
-486 513 0
-487 513 0
-488 513 0
-489 513 0
-490 513 0
-491 513 0
-492 513 0
-493 513 0
-494 513 0
-495 513 0
514 0
510 -513 -515 0
-510 513 -515 0
-510 -513 515 0
510 513 515 0
-3 515 0
486 516 0
487 516 0
488 516 0
489 516 0
490 516 0
491 516 0
492 516 0
493 516 0
494 516 0
495 516 0
-517 0
-510 516 -518 0
510 -516 -518 0
518 -516 -510 0
510 516 518 0
-4 -518 0
487 -519 -520 0
519 -487 -520 0
-487 -519 520 0
487 519 520 0
-1 -520 0
519 -488 -521 0
488 -519 -521 0
521 -519 -488 0
521 519 488 0
-2 521 0
-487 522 0
-488 522 0
-489 522 0
-490 522 0
-491 522 0
-492 522 0
-493 522 0
-494 522 0
-495 522 0
523 0
519 -522 -524 0
-519 522 -524 0
-519 -522 524 0
519 522 524 0
-3 524 0
487 525 0
488 525 0
489 525 0
490 525 0
491 525 0
492 525 0
493 525 0
494 525 0
495 525 0
-526 0
-519 525 -527 0
519 -525 -527 0
527 -525 -519 0
519 525 527 0
-4 -527 0
488 -528 -529 0
528 -488 -529 0
-488 -528 529 0
488 528 529 0
-1 -529 0
528 -489 -530 0
489 -528 -530 0
530 -528 -489 0
530 528 489 0
-2 530 0
-488 531 0
-489 531 0
-490 531 0
-491 531 0
-492 531 0
-493 531 0
-494 531 0
-495 531 0
532 0
528 -531 -533 0
-528 531 -533 0
-528 -531 533 0
528 531 533 0
-3 533 0
488 534 0
489 534 0
490 534 0
491 534 0
492 534 0
493 534 0
494 534 0
495 534 0
-535 0
-528 534 -536 0
528 -534 -536 0
536 -534 -528 0
528 534 536 0
-4 -536 0
489 -537 -538 0
537 -489 -538 0
-489 -537 538 0
489 537 538 0
-1 -538 0
537 -490 -539 0
490 -537 -539 0
539 -537 -490 0
539 537 490 0
-2 539 0
-489 540 0
-490 540 0
-491 540 0
-492 540 0
-493 540 0
-494 540 0
-495 540 0
541 0
537 -540 -542 0
-537 540 -542 0
-537 -540 542 0
537 540 542 0
-3 542 0
489 543 0
490 543 0
491 543 0
492 543 0
493 543 0
494 543 0
495 543 0
-544 0
-537 543 -545 0
537 -543 -545 0
545 -543 -537 0
537 543 545 0
-4 -545 0
490 -546 -547 0
546 -490 -547 0
-490 -546 547 0
490 546 547 0
-1 -547 0
546 -491 -548 0
491 -546 -548 0
548 -546 -491 0
548 546 491 0
-2 548 0
-490 549 0
-491 549 0
-492 549 0
-493 549 0
-494 549 0
-495 549 0
550 0
546 -549 -551 0
-546 549 -551 0
-546 -549 551 0
546 549 551 0
-3 551 0
490 552 0
491 552 0
492 552 0
493 552 0
494 552 0
495 552 0
-553 0
-546 552 -554 0
546 -552 -554 0
554 -552 -546 0
546 552 554 0
-4 -554 0
491 -555 -556 0
555 -491 -556 0
-491 -555 556 0
491 555 556 0
-1 -556 0
555 -492 -557 0
492 -555 -557 0
557 -555 -492 0
557 555 492 0
-2 557 0
555 -549 -558 0
549 -555 -558 0
-549 -555 558 0
555 549 558 0
-3 558 0
552 -555 -559 0
555 -552 -559 0
559 -552 -555 0
555 552 559 0
-4 -559 0
492 -560 -561 0
560 -492 -561 0
-492 -560 561 0
492 560 561 0
-1 -561 0
560 -493 -562 0
493 -560 -562 0
562 -560 -493 0
562 560 493 0
-2 562 0
560 -549 -563 0
549 -560 -563 0
-549 -560 563 0
560 549 563 0
-3 563 0
552 -560 -564 0
560 -552 -564 0
564 -552 -560 0
560 552 564 0
-4 -564 0
493 -565 -566 0
565 -493 -566 0
-493 -565 566 0
493 565 566 0
-1 -566 0
565 -494 -567 0
494 -565 -567 0
567 -565 -494 0
567 565 494 0
-2 567 0
565 -549 -568 0
549 -565 -568 0
-549 -565 568 0
565 549 568 0
-3 568 0
552 -565 -569 0
565 -552 -569 0
569 -552 -565 0
565 552 569 0
-4 -569 0
494 -570 -571 0
570 -494 -571 0
-494 -570 571 0
494 570 571 0
-1 -571 0
570 -495 -572 0
495 -570 -572 0
572 -570 -495 0
572 570 495 0
-2 572 0
570 -549 -573 0
549 -570 -573 0
-549 -570 573 0
570 549 573 0
-3 573 0
552 -570 -574 0
570 -552 -574 0
574 -552 -570 0
570 552 574 0
-4 -574 0
495 -575 -576 0
575 -495 -576 0
-495 -575 576 0
495 575 576 0
-1 -576 0
-490 575 -577 0
490 -575 -577 0
577 -575 -490 0
577 575 490 0
-2 577 0
575 -549 -578 0
549 -575 -578 0
-549 -575 578 0
575 549 578 0
-3 578 0
552 -575 -579 0
575 -552 -579 0
579 -552 -575 0
575 552 579 0
-4 -579 0
580 -581 -582 0
581 -580 -582 0
-580 -581 582 0
581 580 582 0
-1 -582 0
581 -583 -584 0
583 -581 -584 0
584 -581 -583 0
584 581 583 0
-2 584 0
-91 585 0
-92 585 0
-93 585 0
-94 585 0
-580 585 0
-583 585 0
-586 585 0
-587 585 0
588 0
581 -585 -589 0
-581 585 -589 0
-581 -585 589 0
581 585 589 0
-3 589 0
91 590 0
92 590 0
93 590 0
94 590 0
580 590 0
583 590 0
586 590 0
587 590 0
-591 0
-581 590 -592 0
581 -590 -592 0
592 -590 -581 0
581 590 592 0
-4 -592 0
583 -593 -594 0
593 -583 -594 0
-583 -593 594 0
583 593 594 0
-1 -594 0
593 -586 -595 0
586 -593 -595 0
595 -593 -586 0
595 593 586 0
-2 595 0
-91 596 0
-92 596 0
-93 596 0
-94 596 0
-583 596 0
-586 596 0
-587 596 0
597 0
593 -596 -598 0
-593 596 -598 0
-593 -596 598 0
593 596 598 0
-3 598 0
91 599 0
92 599 0
93 599 0
94 599 0
583 599 0
586 599 0
587 599 0
-600 0
-593 599 -601 0
593 -599 -601 0
601 -599 -593 0
593 599 601 0
-4 -601 0
586 -602 -603 0
602 -586 -603 0
-586 -602 603 0
586 602 603 0
-1 -603 0
602 -587 -604 0
587 -602 -604 0
604 -602 -587 0
604 602 587 0
-2 604 0
-91 605 0
-92 605 0
-93 605 0
-94 605 0
-586 605 0
-587 605 0
606 0
602 -605 -607 0
-602 605 -607 0
-602 -605 607 0
602 605 607 0
-3 607 0
91 608 0
92 608 0
93 608 0
94 608 0
586 608 0
587 608 0
-609 0
-602 608 -610 0
602 -608 -610 0
610 -608 -602 0
602 608 610 0
-4 -610 0
587 -611 -612 0
611 -587 -612 0
-587 -611 612 0
587 611 612 0
-1 -612 0
-92 611 -613 0
92 -611 -613 0
613 -611 -92 0
613 611 92 0
-2 613 0
-91 614 0
-92 614 0
-93 614 0
-94 614 0
-587 614 0
91 92 93 94 587 -614 0
611 -614 -615 0
-611 614 -615 0
-611 -614 615 0
611 614 615 0
-3 615 0
91 616 0
92 616 0
93 616 0
94 616 0
587 616 0
-617 0
-611 616 -618 0
611 -616 -618 0
618 -616 -611 0
611 616 618 0
-4 -618 0
6 0
-10 0
-82 0
-168 0
-258 0
-278 0
-321 0
-421 0
-481 0
-581 0
